% Generated FlatZinc statistics:
%%%mzn-stat: paths=0
%%%mzn-stat: flatBoolVars=962
%%%mzn-stat: flatIntVars=155
%%%mzn-stat: flatBoolConstraints=290
%%%mzn-stat: flatIntConstraints=1100
%%%mzn-stat: evaluatedReifiedConstraints=98
%%%mzn-stat: evaluatedHalfReifiedConstraints=864
%%%mzn-stat: eliminatedLinearConstraints=1
%%%mzn-stat: method="minimize"
%%%mzn-stat: flatTime=0.0925645
%%%mzn-stat-end
end = 120
carga_por_operario = [120, 0, 0, 0]
desbalance = 120
Job 1:  44(op:1)  45(op:1)  65(op:1)  80(op:1) 114(op:1)
Job 2:  32(op:1)  61(op:1)  73(op:1) 109(op:1) 117(op:1)
Job 3:   0(op:1)  11(op:1)  37(op:1)  67(op:1)  97(op:1)
Job 4:  19(op:1)  49(op:1)  87(op:1)  94(op:1) 110(op:1)
Job 5:   3(op:1)  27(op:1)  55(op:1)  90(op:1) 103(op:1)
----------
%%%mzn-stat: initTime=0.00471378
%%%mzn-stat: solveTime=59.9071
%%%mzn-stat: solutions=1
%%%mzn-stat: variables=1119
%%%mzn-stat: propagators=1390
%%%mzn-stat: propagations=1098461046
%%%mzn-stat: nodes=12804492
%%%mzn-stat: failures=6402224
%%%mzn-stat: restarts=0
%%%mzn-stat: peakDepth=83
%%%mzn-stat-end
%%%mzn-stat: nSolutions=1
%%%mzn-stat-end
